n = 158;
rows = 632;
supports = [|
    1,2,
  | 1,3,
  | 1,157,
  | 1,158,
  | 2,1,
  | 2,3,
  | 2,4,
  | 2,158,
  | 3,1,
  | 3,2,
  | 3,4,
  | 3,5,
  | 4,2,
  | 4,3,
  | 4,5,
  | 4,6,
  | 5,3,
  | 5,4,
  | 5,6,
  | 5,7,
  | 6,4,
  | 6,5,
  | 6,7,
  | 6,8,
  | 7,5,
  | 7,6,
  | 7,8,
  | 7,9,
  | 8,6,
  | 8,7,
  | 8,9,
  | 8,10,
  | 9,7,
  | 9,8,
  | 9,10,
  | 9,11,
  | 10,8,
  | 10,9,
  | 10,11,
  | 10,12,
  | 11,9,
  | 11,10,
  | 11,12,
  | 11,13,
  | 12,10,
  | 12,11,
  | 12,13,
  | 12,14,
  | 13,11,
  | 13,12,
  | 13,14,
  | 13,15,
  | 14,12,
  | 14,13,
  | 14,15,
  | 14,16,
  | 15,13,
  | 15,14,
  | 15,16,
  | 15,17,
  | 16,14,
  | 16,15,
  | 16,17,
  | 16,18,
  | 17,15,
  | 17,16,
  | 17,18,
  | 17,19,
  | 18,16,
  | 18,17,
  | 18,19,
  | 18,20,
  | 19,17,
  | 19,18,
  | 19,20,
  | 19,21,
  | 20,18,
  | 20,19,
  | 20,21,
  | 20,22,
  | 21,19,
  | 21,20,
  | 21,22,
  | 21,23,
  | 22,20,
  | 22,21,
  | 22,23,
  | 22,24,
  | 23,21,
  | 23,22,
  | 23,24,
  | 23,25,
  | 24,22,
  | 24,23,
  | 24,25,
  | 24,26,
  | 25,23,
  | 25,24,
  | 25,26,
  | 25,27,
  | 26,24,
  | 26,25,
  | 26,27,
  | 26,28,
  | 27,25,
  | 27,26,
  | 27,28,
  | 27,29,
  | 28,26,
  | 28,27,
  | 28,29,
  | 28,30,
  | 29,27,
  | 29,28,
  | 29,30,
  | 29,31,
  | 30,28,
  | 30,29,
  | 30,31,
  | 30,32,
  | 31,29,
  | 31,30,
  | 31,32,
  | 31,33,
  | 32,30,
  | 32,31,
  | 32,33,
  | 32,34,
  | 33,31,
  | 33,32,
  | 33,34,
  | 33,35,
  | 34,32,
  | 34,33,
  | 34,35,
  | 34,36,
  | 35,33,
  | 35,34,
  | 35,36,
  | 35,37,
  | 36,34,
  | 36,35,
  | 36,37,
  | 36,38,
  | 37,35,
  | 37,36,
  | 37,38,
  | 37,39,
  | 38,36,
  | 38,37,
  | 38,39,
  | 38,40,
  | 39,37,
  | 39,38,
  | 39,40,
  | 39,41,
  | 40,38,
  | 40,39,
  | 40,41,
  | 40,42,
  | 41,39,
  | 41,40,
  | 41,42,
  | 41,43,
  | 42,40,
  | 42,41,
  | 42,43,
  | 42,44,
  | 43,41,
  | 43,42,
  | 43,44,
  | 43,45,
  | 44,42,
  | 44,43,
  | 44,45,
  | 44,46,
  | 45,43,
  | 45,44,
  | 45,46,
  | 45,47,
  | 46,44,
  | 46,45,
  | 46,47,
  | 46,48,
  | 47,45,
  | 47,46,
  | 47,48,
  | 47,49,
  | 48,46,
  | 48,47,
  | 48,49,
  | 48,50,
  | 49,47,
  | 49,48,
  | 49,50,
  | 49,51,
  | 50,48,
  | 50,49,
  | 50,51,
  | 50,52,
  | 51,49,
  | 51,50,
  | 51,52,
  | 51,53,
  | 52,50,
  | 52,51,
  | 52,53,
  | 52,54,
  | 53,51,
  | 53,52,
  | 53,54,
  | 53,55,
  | 54,52,
  | 54,53,
  | 54,55,
  | 54,56,
  | 55,53,
  | 55,54,
  | 55,56,
  | 55,57,
  | 56,54,
  | 56,55,
  | 56,57,
  | 56,58,
  | 57,55,
  | 57,56,
  | 57,58,
  | 57,59,
  | 58,56,
  | 58,57,
  | 58,59,
  | 58,60,
  | 59,57,
  | 59,58,
  | 59,60,
  | 59,61,
  | 60,58,
  | 60,59,
  | 60,61,
  | 60,62,
  | 61,59,
  | 61,60,
  | 61,62,
  | 61,63,
  | 62,60,
  | 62,61,
  | 62,63,
  | 62,64,
  | 63,61,
  | 63,62,
  | 63,64,
  | 63,65,
  | 64,62,
  | 64,63,
  | 64,65,
  | 64,66,
  | 65,63,
  | 65,64,
  | 65,66,
  | 65,67,
  | 66,64,
  | 66,65,
  | 66,67,
  | 66,68,
  | 67,65,
  | 67,66,
  | 67,68,
  | 67,69,
  | 68,66,
  | 68,67,
  | 68,69,
  | 68,70,
  | 69,67,
  | 69,68,
  | 69,70,
  | 69,71,
  | 70,68,
  | 70,69,
  | 70,71,
  | 70,72,
  | 71,69,
  | 71,70,
  | 71,72,
  | 71,73,
  | 72,70,
  | 72,71,
  | 72,73,
  | 72,74,
  | 73,71,
  | 73,72,
  | 73,74,
  | 73,75,
  | 74,72,
  | 74,73,
  | 74,75,
  | 74,76,
  | 75,73,
  | 75,74,
  | 75,76,
  | 75,77,
  | 76,74,
  | 76,75,
  | 76,77,
  | 76,78,
  | 77,75,
  | 77,76,
  | 77,78,
  | 77,79,
  | 78,76,
  | 78,77,
  | 78,79,
  | 78,80,
  | 79,77,
  | 79,78,
  | 79,80,
  | 79,81,
  | 80,78,
  | 80,79,
  | 80,81,
  | 80,82,
  | 81,79,
  | 81,80,
  | 81,82,
  | 81,83,
  | 82,80,
  | 82,81,
  | 82,83,
  | 82,84,
  | 83,81,
  | 83,82,
  | 83,84,
  | 83,85,
  | 84,82,
  | 84,83,
  | 84,85,
  | 84,86,
  | 85,83,
  | 85,84,
  | 85,86,
  | 85,87,
  | 86,84,
  | 86,85,
  | 86,87,
  | 86,88,
  | 87,85,
  | 87,86,
  | 87,88,
  | 87,89,
  | 88,86,
  | 88,87,
  | 88,89,
  | 88,90,
  | 89,87,
  | 89,88,
  | 89,90,
  | 89,91,
  | 90,88,
  | 90,89,
  | 90,91,
  | 90,92,
  | 91,89,
  | 91,90,
  | 91,92,
  | 91,93,
  | 92,90,
  | 92,91,
  | 92,93,
  | 92,94,
  | 93,91,
  | 93,92,
  | 93,94,
  | 93,95,
  | 94,92,
  | 94,93,
  | 94,95,
  | 94,96,
  | 95,93,
  | 95,94,
  | 95,96,
  | 95,97,
  | 96,94,
  | 96,95,
  | 96,97,
  | 96,98,
  | 97,95,
  | 97,96,
  | 97,98,
  | 97,99,
  | 98,96,
  | 98,97,
  | 98,99,
  | 98,100,
  | 99,97,
  | 99,98,
  | 99,100,
  | 99,101,
  | 100,98,
  | 100,99,
  | 100,101,
  | 100,102,
  | 101,99,
  | 101,100,
  | 101,102,
  | 101,103,
  | 102,100,
  | 102,101,
  | 102,103,
  | 102,104,
  | 103,101,
  | 103,102,
  | 103,104,
  | 103,105,
  | 104,102,
  | 104,103,
  | 104,105,
  | 104,106,
  | 105,103,
  | 105,104,
  | 105,106,
  | 105,107,
  | 106,104,
  | 106,105,
  | 106,107,
  | 106,108,
  | 107,105,
  | 107,106,
  | 107,108,
  | 107,109,
  | 108,106,
  | 108,107,
  | 108,109,
  | 108,110,
  | 109,107,
  | 109,108,
  | 109,110,
  | 109,111,
  | 110,108,
  | 110,109,
  | 110,111,
  | 110,112,
  | 111,109,
  | 111,110,
  | 111,112,
  | 111,113,
  | 112,110,
  | 112,111,
  | 112,113,
  | 112,114,
  | 113,111,
  | 113,112,
  | 113,114,
  | 113,115,
  | 114,112,
  | 114,113,
  | 114,115,
  | 114,116,
  | 115,113,
  | 115,114,
  | 115,116,
  | 115,117,
  | 116,114,
  | 116,115,
  | 116,117,
  | 116,118,
  | 117,115,
  | 117,116,
  | 117,118,
  | 117,119,
  | 118,116,
  | 118,117,
  | 118,119,
  | 118,120,
  | 119,117,
  | 119,118,
  | 119,120,
  | 119,121,
  | 120,118,
  | 120,119,
  | 120,121,
  | 120,122,
  | 121,119,
  | 121,120,
  | 121,122,
  | 121,123,
  | 122,120,
  | 122,121,
  | 122,123,
  | 122,124,
  | 123,121,
  | 123,122,
  | 123,124,
  | 123,125,
  | 124,122,
  | 124,123,
  | 124,125,
  | 124,126,
  | 125,123,
  | 125,124,
  | 125,126,
  | 125,127,
  | 126,124,
  | 126,125,
  | 126,127,
  | 126,128,
  | 127,125,
  | 127,126,
  | 127,128,
  | 127,129,
  | 128,126,
  | 128,127,
  | 128,129,
  | 128,130,
  | 129,127,
  | 129,128,
  | 129,130,
  | 129,131,
  | 130,128,
  | 130,129,
  | 130,131,
  | 130,132,
  | 131,129,
  | 131,130,
  | 131,132,
  | 131,133,
  | 132,130,
  | 132,131,
  | 132,133,
  | 132,134,
  | 133,131,
  | 133,132,
  | 133,134,
  | 133,135,
  | 134,132,
  | 134,133,
  | 134,135,
  | 134,136,
  | 135,133,
  | 135,134,
  | 135,136,
  | 135,137,
  | 136,134,
  | 136,135,
  | 136,137,
  | 136,138,
  | 137,135,
  | 137,136,
  | 137,138,
  | 137,139,
  | 138,136,
  | 138,137,
  | 138,139,
  | 138,140,
  | 139,137,
  | 139,138,
  | 139,140,
  | 139,141,
  | 140,138,
  | 140,139,
  | 140,141,
  | 140,142,
  | 141,139,
  | 141,140,
  | 141,142,
  | 141,143,
  | 142,140,
  | 142,141,
  | 142,143,
  | 142,144,
  | 143,141,
  | 143,142,
  | 143,144,
  | 143,145,
  | 144,142,
  | 144,143,
  | 144,145,
  | 144,146,
  | 145,143,
  | 145,144,
  | 145,146,
  | 145,147,
  | 146,144,
  | 146,145,
  | 146,147,
  | 146,148,
  | 147,145,
  | 147,146,
  | 147,148,
  | 147,149,
  | 148,146,
  | 148,147,
  | 148,149,
  | 148,150,
  | 149,147,
  | 149,148,
  | 149,150,
  | 149,151,
  | 150,148,
  | 150,149,
  | 150,151,
  | 150,152,
  | 151,149,
  | 151,150,
  | 151,152,
  | 151,153,
  | 152,150,
  | 152,151,
  | 152,153,
  | 152,154,
  | 153,151,
  | 153,152,
  | 153,154,
  | 153,155,
  | 154,152,
  | 154,153,
  | 154,155,
  | 154,156,
  | 155,153,
  | 155,154,
  | 155,156,
  | 155,157,
  | 156,154,
  | 156,155,
  | 156,157,
  | 156,158,
  | 157,1,
  | 157,155,
  | 157,156,
  | 157,158,
  | 158,1,
  | 158,2,
  | 158,156,
  | 158,157 |];

t = 312;

indexes = [|
    0,61,
  | 0,69,
  | 0,85,
  | 0,96,
  | 1,11,
  | 1,19,
  | 1,49,
  | 1,150,
  | 2,3,
  | 2,32,
  | 2,112,
  | 2,140,
  | 3,28,
  | 3,42,
  | 3,127,
  | 4,29,
  | 4,35,
  | 4,73,
  | 4,76,
  | 5,24,
  | 5,31,
  | 5,131,
  | 5,137,
  | 6,52,
  | 6,58,
  | 6,78,
  | 6,152,
  | 7,103,
  | 7,115,
  | 7,147,
  | 7,154,
  | 8,43,
  | 8,53,
  | 8,108,
  | 8,142,
  | 9,56,
  | 9,84,
  | 9,135,
  | 9,148,
  | 10,11,
  | 10,19,
  | 10,49,
  | 10,150,
  | 11,68,
  | 11,77,
  | 12,19,
  | 12,40,
  | 12,49,
  | 12,121,
  | 13,30,
  | 13,59,
  | 13,99,
  | 13,130,
  | 14,88,
  | 14,100,
  | 14,114,
  | 14,129,
  | 15,27,
  | 15,81,
  | 15,107,
  | 15,157,
  | 16,30,
  | 16,59,
  | 16,116,
  | 16,117,
  | 17,81,
  | 17,95,
  | 17,105,
  | 17,157,
  | 18,22,
  | 18,61,
  | 18,96,
  | 18,119,
  | 19,33,
  | 20,43,
  | 20,53,
  | 20,108,
  | 20,142,
  | 21,41,
  | 21,89,
  | 22,54,
  | 22,64,
  | 22,120,
  | 23,44,
  | 23,75,
  | 23,91,
  | 23,104,
  | 24,66,
  | 24,68,
  | 24,77,
  | 25,26,
  | 25,60,
  | 25,116,
  | 25,117,
  | 26,65,
  | 26,118,
  | 26,155,
  | 27,41,
  | 27,89,
  | 27,110,
  | 28,36,
  | 28,112,
  | 28,134,
  | 29,48,
  | 29,57,
  | 29,93,
  | 30,113,
  | 30,145,
  | 31,35,
  | 31,66,
  | 31,76,
  | 32,42,
  | 32,46,
  | 32,63,
  | 33,40,
  | 33,49,
  | 33,121,
  | 34,70,
  | 34,82,
  | 34,124,
  | 34,138,
  | 35,48,
  | 35,131,
  | 36,47,
  | 36,90,
  | 36,127,
  | 37,118,
  | 37,155,
  | 38,52,
  | 38,102,
  | 38,146,
  | 38,152,
  | 39,70,
  | 39,82,
  | 39,103,
  | 39,115,
  | 40,44,
  | 40,75,
  | 41,67,
  | 41,107,
  | 42,112,
  | 42,140,
  | 43,102,
  | 43,146,
  | 44,121,
  | 44,122,
  | 45,58,
  | 45,78,
  | 45,98,
  | 45,106,
  | 46,91,
  | 46,104,
  | 46,140,
  | 47,53,
  | 47,108,
  | 47,134,
  | 48,73,
  | 48,76,
  | 50,111,
  | 50,133,
  | 50,143,
  | 50,151,
  | 51,52,
  | 51,58,
  | 51,78,
  | 51,152,
  | 52,101,
  | 53,90,
  | 54,61,
  | 54,96,
  | 54,119,
  | 55,61,
  | 55,69,
  | 55,85,
  | 55,96,
  | 56,71,
  | 56,80,
  | 56,123,
  | 57,73,
  | 57,147,
  | 57,154,
  | 58,144,
  | 59,113,
  | 59,145,
  | 60,65,
  | 60,118,
  | 60,155,
  | 62,69,
  | 62,85,
  | 62,99,
  | 62,130,
  | 63,91,
  | 63,104,
  | 63,140,
  | 64,100,
  | 64,114,
  | 64,119,
  | 65,116,
  | 65,117,
  | 66,131,
  | 66,137,
  | 67,89,
  | 68,137,
  | 68,150,
  | 69,132,
  | 70,94,
  | 70,156,
  | 71,84,
  | 71,95,
  | 71,105,
  | 72,74,
  | 72,125,
  | 72,141,
  | 72,153,
  | 73,93,
  | 74,83,
  | 74,109,
  | 74,126,
  | 75,121,
  | 75,122,
  | 76,131,
  | 77,137,
  | 77,150,
  | 78,144,
  | 79,83,
  | 79,126,
  | 79,135,
  | 79,148,
  | 80,84,
  | 80,95,
  | 80,105,
  | 81,97,
  | 81,110,
  | 82,94,
  | 82,156,
  | 83,139,
  | 83,153,
  | 84,123,
  | 85,132,
  | 86,111,
  | 86,124,
  | 86,133,
  | 86,138,
  | 87,103,
  | 87,115,
  | 87,147,
  | 87,154,
  | 88,98,
  | 88,106,
  | 88,149,
  | 89,107,
  | 90,108,
  | 90,134,
  | 91,122,
  | 92,118,
  | 92,155,
  | 93,147,
  | 93,154,
  | 94,124,
  | 94,138,
  | 95,97,
  | 97,105,
  | 97,157,
  | 98,129,
  | 98,144,
  | 99,132,
  | 99,145,
  | 100,120,
  | 100,149,
  | 101,102,
  | 101,146,
  | 101,152,
  | 102,142,
  | 103,156,
  | 104,122,
  | 106,129,
  | 106,144,
  | 107,110,
  | 109,125,
  | 109,141,
  | 109,153,
  | 110,157,
  | 111,128,
  | 111,136,
  | 112,127,
  | 113,116,
  | 113,117,
  | 114,120,
  | 114,149,
  | 115,156,
  | 119,120,
  | 123,135,
  | 123,148,
  | 124,128,
  | 125,143,
  | 125,151,
  | 126,139,
  | 126,153,
  | 127,134,
  | 128,133,
  | 128,138,
  | 129,149,
  | 130,132,
  | 130,145,
  | 133,136,
  | 135,139,
  | 136,143,
  | 136,151,
  | 139,148,
  | 141,143,
  | 141,151,
  | 142,146 |];

